131 5
10 10 10 10 10 

0 0 0 0 0 0 1 2 
0 0 0 0 0 0 7 3 5 6 7 10 11 12 
9 0 0 0 1 0 1 4 
3 0 0 0 5 0 2 9 8 
8 0 0 0 7 0 1 8 
7 0 0 0 8 0 1 8 
10 0 0 0 5 0 1 8 
4 0 0 0 4 0 1 13 
7 0 0 0 4 0 1 13 
1 0 0 0 7 0 1 13 
1 0 0 0 7 0 1 13 
5 0 0 0 2 0 1 13 
0 0 0 0 0 0 2 14 26 
0 0 0 0 0 0 5 15 16 17 23 24 
2 0 1 0 0 0 3 21 19 18 
5 0 8 0 0 0 3 21 20 19 
4 0 3 0 0 0 2 22 19 
1 0 5 0 0 0 1 20 
4 0 4 0 0 0 1 25 
9 0 6 0 0 0 1 25 
6 0 4 0 0 0 1 25 
8 0 4 0 0 0 1 25 
9 0 8 0 0 0 2 25 80 
4 0 7 0 0 0 1 25 
0 0 0 0 0 0 5 48 60 72 84 96 
0 0 0 0 0 0 9 27 28 29 30 31 32 33 36 38 
6 1 0 2 0 0 6 46 45 40 37 34 82 
7 3 0 4 0 0 4 46 45 44 35 
8 4 0 3 0 0 4 45 40 37 34 
4 4 0 4 0 0 4 46 45 40 37 
5 7 0 6 0 0 4 45 43 40 37 
2 6 0 10 0 0 3 40 37 34 
7 3 0 2 0 0 5 46 43 42 41 40 
8 2 0 6 0 0 3 44 43 39 
7 4 0 2 0 0 2 43 37 
5 4 0 2 0 0 2 43 39 
10 2 0 4 0 0 1 39 
2 2 0 6 0 0 1 39 
10 3 0 7 0 0 2 42 41 
3 5 0 6 0 0 1 44 
2 9 0 3 0 0 1 47 
2 10 0 6 0 0 1 47 
10 8 0 9 0 0 1 47 
8 10 0 6 0 0 1 47 
2 6 0 8 0 0 1 47 
10 7 0 4 0 0 1 47 
0 0 0 0 0 0 1 108 
0 0 0 0 0 0 6 49 50 52 56 57 58 
9 0 1 0 0 0 3 55 53 51 
5 0 4 0 0 0 2 54 53 
10 0 5 0 0 0 1 54 
9 0 5 0 0 0 1 53 
1 0 5 0 0 0 1 59 
8 0 4 0 0 0 1 59 
5 0 8 0 0 0 1 59 
4 0 6 0 0 0 2 59 106 
8 0 3 0 0 0 1 59 
10 0 9 0 0 0 1 59 
0 0 0 0 0 0 1 108 
0 0 0 0 0 0 4 61 62 63 66 
7 0 0 0 0 1 4 70 69 67 65 
4 0 0 0 0 7 3 70 69 64 
6 0 0 0 0 2 1 64 
8 0 0 0 0 4 2 68 67 
3 0 0 0 0 6 1 68 
10 0 0 0 0 7 1 67 
9 0 0 0 0 4 2 71 75 
1 0 0 0 0 8 1 71 
7 0 0 0 0 5 1 71 
8 0 0 0 0 6 1 71 
0 0 0 0 0 0 1 108 
0 0 0 0 0 0 4 73 75 76 82 
10 0 0 1 0 0 5 81 80 78 74 101 
1 0 0 5 0 0 2 79 77 
3 0 0 4 0 0 1 78 
10 0 0 6 0 0 1 77 
2 0 0 3 0 0 1 83 
8 0 0 7 0 0 1 83 
1 0 0 4 0 0 1 83 
3 0 0 8 0 0 1 83 
2 0 0 8 0 0 1 83 
3 0 0 4 0 0 1 83 
0 0 0 0 0 0 1 108 
0 0 0 0 0 0 6 85 86 87 89 90 94 
5 1 0 0 0 0 2 93 91 
9 9 0 0 0 0 3 92 91 101 
5 8 0 0 0 0 1 88 
6 5 0 0 0 0 1 91 
1 6 0 0 0 0 1 93 
2 1 0 0 0 0 1 92 
10 9 0 0 0 0 1 95 
8 2 0 0 0 0 1 95 
1 3 0 0 0 0 1 95 
6 6 0 0 0 0 1 95 
0 0 0 0 0 0 1 108 
0 0 0 0 0 0 3 97 98 102 
4 0 0 0 0 1 2 101 99 
3 0 0 0 0 7 2 100 99 
9 0 0 0 0 7 4 106 105 104 103 
9 0 0 0 0 5 4 106 105 104 103 
4 0 0 0 0 6 3 105 104 103 
6 0 0 0 0 5 3 105 104 103 
7 0 0 0 0 8 1 107 
9 0 0 0 0 3 1 107 
6 0 0 0 0 4 1 107 
8 0 0 0 0 4 1 107 
0 0 0 0 0 0 1 108 
0 0 0 0 0 0 4 109 110 111 113 
3 0 0 0 1 0 3 118 114 112 
7 0 0 0 5 0 4 118 116 115 114 
1 0 0 0 2 0 4 118 117 116 115 
4 0 0 0 7 0 2 116 115 
5 0 0 0 8 0 2 116 115 
1 0 0 0 5 0 1 117 
3 0 0 0 5 0 1 119 
5 0 0 0 6 0 1 119 
7 0 0 0 6 0 1 119 
8 0 0 0 5 0 1 119 
0 0 0 0 0 0 1 120 
0 0 0 0 0 0 2 121 122 
3 0 0 0 3 0 2 130 124 
5 0 0 0 3 0 2 129 123 
9 0 0 0 6 0 5 130 128 127 126 125 
2 0 0 0 9 0 5 129 128 127 126 125 
2 0 0 0 4 0 1 131 
2 0 0 0 5 0 1 131 
8 0 0 0 10 0 1 131 
6 0 0 0 2 0 1 131 
2 0 0 0 6 0 1 131 
6 0 0 0 2 0 1 131 
0 0 0 0 0 0 0 
